p td 22 75
4 3
4 2
5 3
6 3
6 2
7 1
8 2
9 4
9 8
9 2
9 1
10 8
10 1
10 6
10 5
11 9
11 3
12 7
12 6
12 11
12 3
12 1
13 1
13 4
13 11
13 3
13 2
13 5
13 6
13 8
14 10
14 2
14 3
14 12
14 1
15 6
15 9
15 5
15 13
16 9
16 15
16 2
16 5
16 10
17 1
17 11
18 12
18 2
18 13
18 9
18 11
18 10
19 17
19 18
19 7
19 14
20 8
20 16
20 4
20 18
20 14
21 19
21 3
21 7
21 20
21 4
21 12
21 13
21 18
21 5
22 16
22 4
22 10
22 7
22 20
